NAME mip1
OBJSENSE MAX
ROWS
 N  OBJ
 E  R0      
 G  R1      
 L  R2      
 E  R3      
 G  R4      
 L  R5      
 E  R6      
 G  R7      
 L  R8      
 E  R9      
 G  R10     
 L  R11     
 L  R12     
 L  R13     
 L  R14     
 L  R15     
 L  R16     
 L  R17     
 L  R18     
 L  R19     
 L  R20     
 G  R21     
 E  R22     
 G  R23     
 L  R24     
 L  R25     
 L  R26     
 L  R27     
 L  R28     
 L  R29     
 L  R30     
 E  formula_satisfaction
 E  R32     
 E  R33     
 E  R34     
 E  R35     
 G  R36     
 G  R37     
 G  R38     
 G  R39     
 G  R40     
COLUMNS
    z_&&_2dx326e099b3448659a_0  R25       1000
    z_&&_2dx326e099b3448659a_0  R26       -1000
    z_&&_2dx326e099b3448659a_0  R27       1
    z_&&_2dx326e099b3448659a_0  R28       1000
    z_&&_2dx326e099b3448659a_0  R29       -1000
    z_&&_2dx326e099b3448659a_0  R30       1
    z_&&_2dx326e099b3448659a_0  formula_satisfaction  1
    rho_&&_2dx326e099b3448659a_0  OBJ       1
    rho_&&_2dx326e099b3448659a_0  R25       1
    rho_&&_2dx326e099b3448659a_0  R26       1
    rho_&&_2dx326e099b3448659a_0  R28       1
    rho_&&_2dx326e099b3448659a_0  R29       1
    z_F_2dx78126bafcf5d8fc2_0  R12       1000
    z_F_2dx78126bafcf5d8fc2_0  R13       -1000
    z_F_2dx78126bafcf5d8fc2_0  R14       1000
    z_F_2dx78126bafcf5d8fc2_0  R15       -1000
    z_F_2dx78126bafcf5d8fc2_0  R16       1000
    z_F_2dx78126bafcf5d8fc2_0  R17       -1000
    z_F_2dx78126bafcf5d8fc2_0  R18       1000
    z_F_2dx78126bafcf5d8fc2_0  R19       -1000
    z_F_2dx78126bafcf5d8fc2_0  R20       1
    z_F_2dx78126bafcf5d8fc2_0  R27       -1
    rho_F_2dx78126bafcf5d8fc2_0  R12       1
    rho_F_2dx78126bafcf5d8fc2_0  R13       1
    rho_F_2dx78126bafcf5d8fc2_0  R14       1
    rho_F_2dx78126bafcf5d8fc2_0  R15       1
    rho_F_2dx78126bafcf5d8fc2_0  R16       1
    rho_F_2dx78126bafcf5d8fc2_0  R17       1
    rho_F_2dx78126bafcf5d8fc2_0  R18       1
    rho_F_2dx78126bafcf5d8fc2_0  R19       1
    rho_F_2dx78126bafcf5d8fc2_0  R25       -0.5
    rho_F_2dx78126bafcf5d8fc2_0  R26       -0.5
    MARKER    'MARKER'                 'INTORG'
    z_predicate_2dx14fcdaada9e9bb5e_1  R1        -1000
    z_predicate_2dx14fcdaada9e9bb5e_1  R2        -1000
    z_predicate_2dx14fcdaada9e9bb5e_1  R20       -1
    MARKER    'MARKER'                 'INTEND'
    rho_predicate_2dx14fcdaada9e9bb5e_1  R0        1
    rho_predicate_2dx14fcdaada9e9bb5e_1  R1        1
    rho_predicate_2dx14fcdaada9e9bb5e_1  R2        1
    rho_predicate_2dx14fcdaada9e9bb5e_1  R12       -0.25
    rho_predicate_2dx14fcdaada9e9bb5e_1  R13       -0.75
    x_1       R0        -1
    x_1       R32       1
    x_1       R33       -1
    x_1       R37       1
    MARKER    'MARKER'                 'INTORG'
    z_predicate_2dx14fcdaada9e9bb5e_2  R4        -1000
    z_predicate_2dx14fcdaada9e9bb5e_2  R5        -1000
    z_predicate_2dx14fcdaada9e9bb5e_2  R20       -1
    MARKER    'MARKER'                 'INTEND'
    rho_predicate_2dx14fcdaada9e9bb5e_2  R3        1
    rho_predicate_2dx14fcdaada9e9bb5e_2  R4        1
    rho_predicate_2dx14fcdaada9e9bb5e_2  R5        1
    rho_predicate_2dx14fcdaada9e9bb5e_2  R14       -0.25
    rho_predicate_2dx14fcdaada9e9bb5e_2  R15       -0.75
    x_2       R3        -1
    x_2       R33       1
    x_2       R34       -1
    x_2       R38       1
    MARKER    'MARKER'                 'INTORG'
    z_predicate_2dx14fcdaada9e9bb5e_3  R7        -1000
    z_predicate_2dx14fcdaada9e9bb5e_3  R8        -1000
    z_predicate_2dx14fcdaada9e9bb5e_3  R20       -1
    MARKER    'MARKER'                 'INTEND'
    rho_predicate_2dx14fcdaada9e9bb5e_3  R6        1
    rho_predicate_2dx14fcdaada9e9bb5e_3  R7        1
    rho_predicate_2dx14fcdaada9e9bb5e_3  R8        1
    rho_predicate_2dx14fcdaada9e9bb5e_3  R16       -0.25
    rho_predicate_2dx14fcdaada9e9bb5e_3  R17       -0.75
    x_3       R6        -1
    x_3       R34       1
    x_3       R35       -1
    x_3       R39       1
    MARKER    'MARKER'                 'INTORG'
    z_predicate_2dx14fcdaada9e9bb5e_4  R10       -1000
    z_predicate_2dx14fcdaada9e9bb5e_4  R11       -1000
    z_predicate_2dx14fcdaada9e9bb5e_4  R20       -1
    MARKER    'MARKER'                 'INTEND'
    rho_predicate_2dx14fcdaada9e9bb5e_4  R9        1
    rho_predicate_2dx14fcdaada9e9bb5e_4  R10       1
    rho_predicate_2dx14fcdaada9e9bb5e_4  R11       1
    rho_predicate_2dx14fcdaada9e9bb5e_4  R18       -0.25
    rho_predicate_2dx14fcdaada9e9bb5e_4  R19       -0.75
    x_4       R9        -1
    x_4       R35       1
    x_4       R40       1
    MARKER    'MARKER'                 'INTORG'
    zhat_predicate_2dx14fcdaada9e9bb5e_2dx78126bafcf5d8fc2_1  R12       1000
    zhat_predicate_2dx14fcdaada9e9bb5e_2dx78126bafcf5d8fc2_1  R13       1000
    zhat_predicate_2dx14fcdaada9e9bb5e_2dx78126bafcf5d8fc2_1  R21       1
    zhat_predicate_2dx14fcdaada9e9bb5e_2dx78126bafcf5d8fc2_2  R14       1000
    zhat_predicate_2dx14fcdaada9e9bb5e_2dx78126bafcf5d8fc2_2  R15       1000
    zhat_predicate_2dx14fcdaada9e9bb5e_2dx78126bafcf5d8fc2_2  R21       1
    zhat_predicate_2dx14fcdaada9e9bb5e_2dx78126bafcf5d8fc2_3  R16       1000
    zhat_predicate_2dx14fcdaada9e9bb5e_2dx78126bafcf5d8fc2_3  R17       1000
    zhat_predicate_2dx14fcdaada9e9bb5e_2dx78126bafcf5d8fc2_3  R21       1
    zhat_predicate_2dx14fcdaada9e9bb5e_2dx78126bafcf5d8fc2_4  R18       1000
    zhat_predicate_2dx14fcdaada9e9bb5e_2dx78126bafcf5d8fc2_4  R19       1000
    zhat_predicate_2dx14fcdaada9e9bb5e_2dx78126bafcf5d8fc2_4  R21       1
    z_predicate_2dx31a58ce076bcd859_0  R23       -1000
    z_predicate_2dx31a58ce076bcd859_0  R24       -1000
    z_predicate_2dx31a58ce076bcd859_0  R30       -1
    MARKER    'MARKER'                 'INTEND'
    rho_predicate_2dx31a58ce076bcd859_0  R22       1
    rho_predicate_2dx31a58ce076bcd859_0  R23       1
    rho_predicate_2dx31a58ce076bcd859_0  R24       1
    rho_predicate_2dx31a58ce076bcd859_0  R28       -0.5
    rho_predicate_2dx31a58ce076bcd859_0  R29       -0.5
    x_0       R22       -1
    x_0       R32       -1
    x_0       R36       1
    C23       OBJ       0
    C24       OBJ       0
    C25       OBJ       0
    C26       OBJ       0
    C27       OBJ       0
RHS
    RHS1      R0        -2
    RHS1      R1        -1000
    RHS1      R3        -2
    RHS1      R4        -1000
    RHS1      R6        -2
    RHS1      R7        -1000
    RHS1      R9        -2
    RHS1      R10       -1000
    RHS1      R12       2000
    RHS1      R13       1000
    RHS1      R14       2000
    RHS1      R15       1000
    RHS1      R16       2000
    RHS1      R17       1000
    RHS1      R18       2000
    RHS1      R19       1000
    RHS1      R21       1
    RHS1      R22       -0.1
    RHS1      R23       -1000
    RHS1      R25       1000
    RHS1      R28       1000
    RHS1      formula_satisfaction  1
    RHS1      R32       -0.1
    RHS1      R33       -0.1
    RHS1      R34       -0.1
    RHS1      R35       -0.1
BOUNDS
 UP BND1      z_&&_2dx326e099b3448659a_0  1
 FR BND1      rho_&&_2dx326e099b3448659a_0
 UP BND1      z_F_2dx78126bafcf5d8fc2_0  1
 FR BND1      rho_F_2dx78126bafcf5d8fc2_0
 BV BND1      z_predicate_2dx14fcdaada9e9bb5e_1
 FR BND1      rho_predicate_2dx14fcdaada9e9bb5e_1
 UP BND1      x_1       10
 BV BND1      z_predicate_2dx14fcdaada9e9bb5e_2
 FR BND1      rho_predicate_2dx14fcdaada9e9bb5e_2
 UP BND1      x_2       10
 BV BND1      z_predicate_2dx14fcdaada9e9bb5e_3
 FR BND1      rho_predicate_2dx14fcdaada9e9bb5e_3
 UP BND1      x_3       10
 BV BND1      z_predicate_2dx14fcdaada9e9bb5e_4
 FR BND1      rho_predicate_2dx14fcdaada9e9bb5e_4
 UP BND1      x_4       10
 BV BND1      zhat_predicate_2dx14fcdaada9e9bb5e_2dx78126bafcf5d8fc2_1
 BV BND1      zhat_predicate_2dx14fcdaada9e9bb5e_2dx78126bafcf5d8fc2_2
 BV BND1      zhat_predicate_2dx14fcdaada9e9bb5e_2dx78126bafcf5d8fc2_3
 BV BND1      zhat_predicate_2dx14fcdaada9e9bb5e_2dx78126bafcf5d8fc2_4
 BV BND1      z_predicate_2dx31a58ce076bcd859_0
 FR BND1      rho_predicate_2dx31a58ce076bcd859_0
 UP BND1      x_0       10
 FR BND1      C23     
 FR BND1      C24     
 FR BND1      C25     
 FR BND1      C26     
 FR BND1      C27     
ENDATA
